17	4
24	32	32	23	
0	0	0	0	0	3	2	3	4	
4	9	1	3	8	2	5	17	
4	10	4	5	10	3	6	12	17	
1	8	9	9	10	3	9	13	17	
3	1	2	9	8	3	7	14	16	
125	2	2	8	5	3	8	10	11	
75	1	1	4	5	3	9	11	17	
25	4	10	9	4	3	13	17	17	
125	8	10	4	4	3	17	17	17	
75	2	2	3	9	3	14	16	17	
25	2	3	6	4	2	13	17	
200	3	3	1	10	3	15	17	17	
6	9	8	1	1	3	15	17	17	
5	2	1	7	8	3	15	17	17	
8	2	3	10	4	2	17	17	
3	5	8	3	2	2	17	17	
0	0	0	0	0	0	
